n_res = 4;
rc = [ 25, 26, 23, 22 ];
n_tasks = 60;
d = [ 2, 4, 3, 4, 1, 6, 7, 2, 7, 6, 5, 2, 5, 7, 5, 10, 7, 3, 2, 6, 4, 8, 4, 7, 2, 10, 5, 7, 9, 5, 6, 7, 6, 8, 6, 5, 8, 3, 10, 10, 3, 4, 8, 7, 2, 6, 1, 1, 4, 10, 2, 8, 2, 7, 2, 3, 4, 3, 8, 1 ];
rr = [| 7, 0, 0, 0, 9, 7, 1, 0, 9, 0, 0, 0, 0, 5, 0, 0, 0, 5, 0, 9, 9, 1, 4, 0, 0, 8, 0, 0, 0, 0, 0, 6, 0, 0, 7, 9, 4, 0, 0, 9, 0, 0, 2, 0, 8, 6, 7, 7, 0, 0, 0, 3, 0, 9, 9, 0, 0, 0, 3, 2
      | 0, 5, 9, 0, 8, 0, 0, 3, 0, 1, 1, 5, 10, 5, 7, 6, 0, 0, 5, 7, 0, 0, 0, 8, 0, 0, 0, 5, 3, 10, 3, 0, 0, 0, 3, 0, 0, 9, 10, 0, 9, 9, 7, 3, 5, 0, 0, 0, 0, 8, 1, 1, 0, 0, 0, 0, 2, 10, 0, 0
      | 9, 9, 0, 0, 0, 0, 0, 9, 5, 2, 3, 6, 3, 6, 0, 0, 1, 0, 0, 10, 0, 3, 6, 0, 0, 6, 1, 0, 0, 8, 0, 7, 0, 1, 7, 0, 5, 0, 2, 1, 0, 0, 0, 9, 0, 7, 0, 8, 8, 10, 5, 10, 9, 1, 8, 0, 3, 2, 0, 0
      | 0, 0, 0, 3, 0, 0, 0, 2, 0, 0, 0, 9, 0, 0, 1, 2, 6, 0, 1, 0, 1, 2, 5, 0, 1, 0, 10, 3, 0, 0, 9, 0, 9, 0, 2, 0, 6, 0, 4, 9, 6, 1, 0, 6, 6, 0, 0, 0, 6, 0, 10, 0, 1, 2, 0, 5, 0, 8, 0, 0 |];
suc = [ { 4, 8, 12 },
       { 7, 9, 10 },
       { 14, 22, 30 },
       { 5, 6, 17 },
       { 19, 24, 41 },
       { 31, 53, 57 },
       { 11, 13, 16 },
       { 21, 28, 50 },
       { 21, 35, 54 },
       { 11, 44, 58 },
       { 30, 38, 51 },
       { 20, 26 },
       { 20, 35, 52 },
       { 15, 28, 36 },
       { 16, 21, 25 },
       { 33, 47 },
       { 18, 27, 50 },
       { 36, 43, 46 },
       { 23, 53 },
       { 32, 37, 47 },
       { 23, 44, 55 },
       { 23, 28, 36 },
       { 29, 48 },
       { 38, 42, 49 },
       { 32, 37, 39 },
       { 29, 40, 45 },
       { 29, 42, 44 },
       { 32, 34, 41 },
       { 59 },
       { 41, 43, 46 },
       { 33, 43 },
       { 40, 42, 58 },
       { 34, 35 },
       { 39, 45 },
       { 37, 39, 50 },
       { 38, 52, 58 },
       { 59 },
       { 40, 53 },
       { 51 },
       { 54 },
       { 45, 49 },
       { 54 },
       { 47, 49 },
       { 46, 52 },
       { 48 },
       { 56 },
       { 48 },
       { 60 },
       { 56 },
       { 51 },
       { 60 },
       { 57 },
       { 55 },
       { 55, 57 },
       { 56 },
       { 60 },
       { 59 },
       {  },
       {  },
       {  } ];
